n = 35;
m = 60;
w = [6,9,4,2,6,3,10,9,1,2,10,6,1,2,8,10,1,8,7,6,3,5,2,7,1,3,3,6,1,8,8,1,8,5,3,4,7,9,1,9,8,4,10,10,1,1,2,4,8,3,9,6,5,6,1,5,5,6,6,3];
edges = array2d(1..m, 1..2, [1,11,1,13,1,15,1,16,1,35,2,5,2,6,2,10,2,25,3,5,3,25,3,30,4,8,4,20,4,25,4,26,4,29,4,33,4,35,5,16,6,12,7,18,7,19,8,11,9,10,9,12,10,11,10,29,10,32,10,34,11,13,11,31,11,34,12,26,13,16,13,18,13,20,13,22,14,20,15,16,15,23,15,29,16,18,17,35,18,27,18,31,19,22,20,21,20,25,20,28,21,22,21,35,22,30,22,31,22,33,23,34,25,30,25,31,25,32,29,34]);
